100 53803

 142 612
571 679
186 318
279 849
219 948
183 885
826 740
286 278
928 282
970 964
572 11
144 717
375 707
798 623
368 991
88 312
557 340
846 79
796 443
176 262
673 344
221 835
219 936
875 186
250 373
264 929
1 62
871 93
793 163
628 596
751 151
153 969
459 447
352 502
94 247
487 471
921 662
41 752
292 754
208 578
239 905
909 818
469 758
467 56
761 7
155 213
488 664
430 412
597 403
1000 885
770 896
398 910
828 314
171 692
31 272
205 191
341 185
511 343
616 430
911 831
510 120
502 735
51 532
35 288
552 493
439 300
840 597
161 434
25 165
450 117
238 547
50 903
725 344
112 734
609 659
282 932
174 821
380 567
802 658
393 899
751 400
126 327
773 11
237 827
678 801
566 105
930 577
388 464
67 119
20 981
827 215
525 68
776 595
235 739
346 33
31 659
962 533
668 104
934 173
266 568
